
Gurobi 11.0.0 (win64) logging started Wed Sep  4 12:44:43 2024

Set parameter LogFile to value "VRPSTW3.log"
Set parameter MIPGap to value 0
Gurobi Optimizer version 11.0.0 build v11.0.0rc2 (win64 - Windows 11+.0 (22631.2))

CPU model: 13th Gen Intel(R) Core(TM) i7-13650HX, instruction set [SSE2|AVX|AVX2]
Thread count: 14 physical cores, 20 logical processors, using up to 20 threads

Optimize a model with 1281 rows, 508 columns and 4920 nonzeros
Model fingerprint: 0x2943c70f
Variable types: 88 continuous, 420 integer (420 binary)
Coefficient statistics:
  Matrix range     [1e+00, 1e+04]
  Objective range  [3e-01, 6e+01]
  Bounds range     [1e+00, 2e+02]
  RHS range        [1e+00, 1e+04]
Found heuristic solution: objective 1042.0740000
Presolve removed 809 rows and 240 columns
Presolve time: 0.01s
Presolved: 472 rows, 268 columns, 2553 nonzeros
Variable types: 93 continuous, 175 integer (173 binary)

Root relaxation: objective 4.022789e+02, 111 iterations, 0.00 seconds (0.00 work units)

    Nodes    |    Current Node    |     Objective Bounds      |     Work
 Expl Unexpl |  Obj  Depth IntInf | Incumbent    BestBd   Gap | It/Node Time

     0     0  402.27885    0   41 1042.07400  402.27885  61.4%     -    0s
H    0     0                     805.0930000  402.27885  50.0%     -    0s
H    0     0                     619.0070000  402.27885  35.0%     -    0s
H    0     0                     605.2890000  402.27885  33.5%     -    0s
H    0     0                     542.0960000  459.31991  15.3%     -    0s
     0     0  459.31991    0   29  542.09600  459.31991  15.3%     -    0s
H    0     0                     518.6840000  463.58007  10.6%     -    0s
     0     0  463.58007    0   41  518.68400  463.58007  10.6%     -    0s
     0     0  463.58007    0   30  518.68400  463.58007  10.6%     -    0s
     0     0  467.83748    0   35  518.68400  467.83748  9.80%     -    0s
H    0     0                     515.5740000  468.97647  9.04%     -    0s
     0     0  468.97647    0   34  515.57400  468.97647  9.04%     -    0s
     0     0  469.49528    0   34  515.57400  469.49528  8.94%     -    0s
     0     0  469.64345    0   37  515.57400  469.64345  8.91%     -    0s
     0     0  469.67159    0   39  515.57400  469.67159  8.90%     -    0s
     0     0  469.69550    0   38  515.57400  469.69550  8.90%     -    0s
H    0     0                     511.9510000  469.69550  8.25%     -    0s
     0     0  469.69550    0   38  511.95100  469.69550  8.25%     -    0s
     0     0  473.00967    0   36  511.95100  473.00967  7.61%     -    0s
H    0     0                     508.2920000  474.01635  6.74%     -    0s
H    0     0                     499.7300000  474.01635  5.15%     -    0s
     0     0  474.01635    0   39  499.73000  474.01635  5.15%     -    0s
     0     0  474.11657    0   36  499.73000  474.11657  5.13%     -    0s
     0     0  474.12065    0   36  499.73000  474.12065  5.12%     -    0s
     0     0  475.57003    0   39  499.73000  475.57003  4.83%     -    0s
     0     0  476.15386    0   40  499.73000  476.15386  4.72%     -    0s
     0     0  476.15386    0   43  499.73000  476.15386  4.72%     -    0s
     0     0  476.15386    0   37  499.73000  476.15386  4.72%     -    0s
     0     0  476.65729    0   44  499.73000  476.65729  4.62%     -    0s
     0     0  476.65729    0   45  499.73000  476.65729  4.62%     -    0s
     0     0  476.65729    0   45  499.73000  476.65729  4.62%     -    0s
H    0     0                     498.3360000  476.65729  4.35%     -    0s
H    0     0                     497.4970000  476.65729  4.19%     -    0s
     0     0  476.65729    0   46  497.49700  476.65729  4.19%     -    0s
     0     0  479.07753    0   46  497.49700  479.07753  3.70%     -    0s
     0     0  479.66639    0   47  497.49700  479.66639  3.58%     -    0s
     0     0  479.90266    0   47  497.49700  479.90266  3.54%     -    0s
     0     0  480.53691    0   45  497.49700  480.53691  3.41%     -    0s
     0     0  480.53691    0   32  497.49700  480.53691  3.41%     -    0s
     0     0  480.53691    0   40  497.49700  480.53691  3.41%     -    0s
     0     0  480.53691    0   30  497.49700  480.53691  3.41%     -    0s
     0     0  480.53691    0   44  497.49700  480.53691  3.41%     -    0s
     0     0  480.53691    0   44  497.49700  480.53691  3.41%     -    0s
     0     0  480.53691    0   45  497.49700  480.53691  3.41%     -    0s
H    0     0                     496.4660000  481.39370  3.04%     -    0s
     0     0  481.39370    0   45  496.46600  481.39370  3.04%     -    0s
     0     0  481.39370    0   45  496.46600  481.39370  3.04%     -    0s
     0     0  481.39370    0   42  496.46600  481.39370  3.04%     -    0s
     0     0  481.76154    0   42  496.46600  481.76154  2.96%     -    0s
     0     0  481.76154    0   42  496.46600  481.76154  2.96%     -    0s
     0     0  481.76154    0   40  496.46600  481.76154  2.96%     -    0s
     0     0  482.82248    0   40  496.46600  482.82248  2.75%     -    0s
     0     0  485.91398    0   42  496.46600  485.91398  2.13%     -    0s
     0     0  496.46600    0   42  496.46600  496.46600  0.00%     -    0s

Cutting planes:
  Learned: 3
  Cover: 10
  Implied bound: 10
  Clique: 3
  MIR: 34
  GUB cover: 1
  Zero half: 1
  RLT: 5
  Relax-and-lift: 19

Explored 1 nodes (1104 simplex iterations) in 0.30 seconds (0.22 work units)
Thread count was 20 (of 20 available processors)

Solution count 10: 496.466 497.497 497.497 ... 515.574

Optimal solution found (tolerance 0.00e+00)
Best objective 4.964660000000e+02, best bound 4.964660000000e+02, gap 0.0000%

Gurobi 11.0.0 (win64) logging started Wed Sep  4 12:45:07 2024

Set parameter LogFile to value "VRPSTW3.log"
Set parameter MIPGap to value 0
Gurobi Optimizer version 11.0.0 build v11.0.0rc2 (win64 - Windows 11+.0 (22631.2))

CPU model: 13th Gen Intel(R) Core(TM) i7-13650HX, instruction set [SSE2|AVX|AVX2]
Thread count: 14 physical cores, 20 logical processors, using up to 20 threads

Optimize a model with 1281 rows, 508 columns and 4920 nonzeros
Model fingerprint: 0x2943c70f
Variable types: 88 continuous, 420 integer (420 binary)
Coefficient statistics:
  Matrix range     [1e+00, 1e+04]
  Objective range  [3e-01, 6e+01]
  Bounds range     [1e+00, 2e+02]
  RHS range        [1e+00, 1e+04]
Found heuristic solution: objective 1042.0740000
Presolve removed 809 rows and 240 columns
Presolve time: 0.01s
Presolved: 472 rows, 268 columns, 2553 nonzeros
Variable types: 93 continuous, 175 integer (173 binary)

Root relaxation: objective 4.022789e+02, 111 iterations, 0.00 seconds (0.00 work units)

    Nodes    |    Current Node    |     Objective Bounds      |     Work
 Expl Unexpl |  Obj  Depth IntInf | Incumbent    BestBd   Gap | It/Node Time

     0     0  402.27885    0   41 1042.07400  402.27885  61.4%     -    0s
H    0     0                     805.0930000  402.27885  50.0%     -    0s
H    0     0                     619.0070000  402.27885  35.0%     -    0s
H    0     0                     605.2890000  402.27885  33.5%     -    0s
H    0     0                     542.0960000  459.31991  15.3%     -    0s
     0     0  459.31991    0   29  542.09600  459.31991  15.3%     -    0s
H    0     0                     518.6840000  463.58007  10.6%     -    0s
     0     0  463.58007    0   41  518.68400  463.58007  10.6%     -    0s
     0     0  463.58007    0   30  518.68400  463.58007  10.6%     -    0s
     0     0  467.83748    0   35  518.68400  467.83748  9.80%     -    0s
H    0     0                     515.5740000  468.97647  9.04%     -    0s
     0     0  468.97647    0   34  515.57400  468.97647  9.04%     -    0s
     0     0  469.49528    0   34  515.57400  469.49528  8.94%     -    0s
     0     0  469.64345    0   37  515.57400  469.64345  8.91%     -    0s
     0     0  469.67159    0   39  515.57400  469.67159  8.90%     -    0s
     0     0  469.69550    0   38  515.57400  469.69550  8.90%     -    0s
H    0     0                     511.9510000  469.69550  8.25%     -    0s
     0     0  469.69550    0   38  511.95100  469.69550  8.25%     -    0s
     0     0  473.00967    0   36  511.95100  473.00967  7.61%     -    0s
H    0     0                     508.2920000  474.01635  6.74%     -    0s
H    0     0                     499.7300000  474.01635  5.15%     -    0s
     0     0  474.01635    0   39  499.73000  474.01635  5.15%     -    0s
     0     0  474.11657    0   36  499.73000  474.11657  5.13%     -    0s
     0     0  474.12065    0   36  499.73000  474.12065  5.12%     -    0s
     0     0  475.57003    0   39  499.73000  475.57003  4.83%     -    0s
     0     0  476.15386    0   40  499.73000  476.15386  4.72%     -    0s
     0     0  476.15386    0   43  499.73000  476.15386  4.72%     -    0s
     0     0  476.15386    0   37  499.73000  476.15386  4.72%     -    0s
     0     0  476.65729    0   44  499.73000  476.65729  4.62%     -    0s
     0     0  476.65729    0   45  499.73000  476.65729  4.62%     -    0s
     0     0  476.65729    0   45  499.73000  476.65729  4.62%     -    0s
H    0     0                     498.3360000  476.65729  4.35%     -    0s
H    0     0                     497.4970000  476.65729  4.19%     -    0s
     0     0  476.65729    0   46  497.49700  476.65729  4.19%     -    0s
     0     0  479.07753    0   46  497.49700  479.07753  3.70%     -    0s
     0     0  479.66639    0   47  497.49700  479.66639  3.58%     -    0s
     0     0  479.90266    0   47  497.49700  479.90266  3.54%     -    0s
     0     0  480.53691    0   45  497.49700  480.53691  3.41%     -    0s
     0     0  480.53691    0   32  497.49700  480.53691  3.41%     -    0s
     0     0  480.53691    0   40  497.49700  480.53691  3.41%     -    0s
     0     0  480.53691    0   30  497.49700  480.53691  3.41%     -    0s
     0     0  480.53691    0   44  497.49700  480.53691  3.41%     -    0s
     0     0  480.53691    0   44  497.49700  480.53691  3.41%     -    0s
     0     0  480.53691    0   45  497.49700  480.53691  3.41%     -    0s
H    0     0                     496.4660000  481.39370  3.04%     -    0s
     0     0  481.39370    0   45  496.46600  481.39370  3.04%     -    0s
     0     0  481.39370    0   45  496.46600  481.39370  3.04%     -    0s
     0     0  481.39370    0   42  496.46600  481.39370  3.04%     -    0s
     0     0  481.76154    0   42  496.46600  481.76154  2.96%     -    0s
     0     0  481.76154    0   42  496.46600  481.76154  2.96%     -    0s
     0     0  481.76154    0   40  496.46600  481.76154  2.96%     -    0s
     0     0  482.82248    0   40  496.46600  482.82248  2.75%     -    0s
     0     0  485.91398    0   42  496.46600  485.91398  2.13%     -    0s
     0     0  496.46600    0   42  496.46600  496.46600  0.00%     -    0s

Cutting planes:
  Learned: 3
  Cover: 10
  Implied bound: 10
  Clique: 3
  MIR: 34
  GUB cover: 1
  Zero half: 1
  RLT: 5
  Relax-and-lift: 19

Explored 1 nodes (1104 simplex iterations) in 0.28 seconds (0.22 work units)
Thread count was 20 (of 20 available processors)

Solution count 10: 496.466 497.497 497.497 ... 515.574

Optimal solution found (tolerance 0.00e+00)
Best objective 4.964660000000e+02, best bound 4.964660000000e+02, gap 0.0000%

Gurobi 11.0.0 (win64) logging started Wed Sep  4 12:46:39 2024

Set parameter LogFile to value "VRPSTW3.log"
Set parameter MIPGap to value 0
Gurobi Optimizer version 11.0.0 build v11.0.0rc2 (win64 - Windows 11+.0 (22631.2))

CPU model: 13th Gen Intel(R) Core(TM) i7-13650HX, instruction set [SSE2|AVX|AVX2]
Thread count: 14 physical cores, 20 logical processors, using up to 20 threads

Optimize a model with 1281 rows, 508 columns and 4920 nonzeros
Model fingerprint: 0x2943c70f
Variable types: 88 continuous, 420 integer (420 binary)
Coefficient statistics:
  Matrix range     [1e+00, 1e+04]
  Objective range  [3e-01, 6e+01]
  Bounds range     [1e+00, 2e+02]
  RHS range        [1e+00, 1e+04]
Found heuristic solution: objective 1042.0740000
Presolve removed 809 rows and 240 columns
Presolve time: 0.01s
Presolved: 472 rows, 268 columns, 2553 nonzeros
Variable types: 93 continuous, 175 integer (173 binary)

Root relaxation: objective 4.022789e+02, 111 iterations, 0.00 seconds (0.00 work units)

    Nodes    |    Current Node    |     Objective Bounds      |     Work
 Expl Unexpl |  Obj  Depth IntInf | Incumbent    BestBd   Gap | It/Node Time

     0     0  402.27885    0   41 1042.07400  402.27885  61.4%     -    0s
H    0     0                     805.0930000  402.27885  50.0%     -    0s
H    0     0                     619.0070000  402.27885  35.0%     -    0s
H    0     0                     605.2890000  402.27885  33.5%     -    0s
H    0     0                     542.0960000  459.31991  15.3%     -    0s
     0     0  459.31991    0   29  542.09600  459.31991  15.3%     -    0s
H    0     0                     518.6840000  463.58007  10.6%     -    0s
     0     0  463.58007    0   41  518.68400  463.58007  10.6%     -    0s
     0     0  463.58007    0   30  518.68400  463.58007  10.6%     -    0s
     0     0  467.83748    0   35  518.68400  467.83748  9.80%     -    0s
H    0     0                     515.5740000  468.97647  9.04%     -    0s
     0     0  468.97647    0   34  515.57400  468.97647  9.04%     -    0s
     0     0  469.49528    0   34  515.57400  469.49528  8.94%     -    0s
     0     0  469.64345    0   37  515.57400  469.64345  8.91%     -    0s
     0     0  469.67159    0   39  515.57400  469.67159  8.90%     -    0s
     0     0  469.69550    0   38  515.57400  469.69550  8.90%     -    0s
H    0     0                     511.9510000  469.69550  8.25%     -    0s
     0     0  469.69550    0   38  511.95100  469.69550  8.25%     -    0s
     0     0  473.00967    0   36  511.95100  473.00967  7.61%     -    0s
H    0     0                     508.2920000  474.01635  6.74%     -    0s
H    0     0                     499.7300000  474.01635  5.15%     -    0s
     0     0  474.01635    0   39  499.73000  474.01635  5.15%     -    0s
     0     0  474.11657    0   36  499.73000  474.11657  5.13%     -    0s
     0     0  474.12065    0   36  499.73000  474.12065  5.12%     -    0s
     0     0  475.57003    0   39  499.73000  475.57003  4.83%     -    0s
     0     0  476.15386    0   40  499.73000  476.15386  4.72%     -    0s
     0     0  476.15386    0   43  499.73000  476.15386  4.72%     -    0s
     0     0  476.15386    0   37  499.73000  476.15386  4.72%     -    0s
     0     0  476.65729    0   44  499.73000  476.65729  4.62%     -    0s
     0     0  476.65729    0   45  499.73000  476.65729  4.62%     -    0s
     0     0  476.65729    0   45  499.73000  476.65729  4.62%     -    0s
H    0     0                     498.3360000  476.65729  4.35%     -    0s
H    0     0                     497.4970000  476.65729  4.19%     -    0s
     0     0  476.65729    0   46  497.49700  476.65729  4.19%     -    0s
     0     0  479.07753    0   46  497.49700  479.07753  3.70%     -    0s
     0     0  479.66639    0   47  497.49700  479.66639  3.58%     -    0s
     0     0  479.90266    0   47  497.49700  479.90266  3.54%     -    0s
     0     0  480.53691    0   45  497.49700  480.53691  3.41%     -    0s
     0     0  480.53691    0   32  497.49700  480.53691  3.41%     -    0s
     0     0  480.53691    0   40  497.49700  480.53691  3.41%     -    0s
     0     0  480.53691    0   30  497.49700  480.53691  3.41%     -    0s
     0     0  480.53691    0   44  497.49700  480.53691  3.41%     -    0s
     0     0  480.53691    0   44  497.49700  480.53691  3.41%     -    0s
     0     0  480.53691    0   45  497.49700  480.53691  3.41%     -    0s
H    0     0                     496.4660000  481.39370  3.04%     -    0s
     0     0  481.39370    0   45  496.46600  481.39370  3.04%     -    0s
     0     0  481.39370    0   45  496.46600  481.39370  3.04%     -    0s
     0     0  481.39370    0   42  496.46600  481.39370  3.04%     -    0s
     0     0  481.76154    0   42  496.46600  481.76154  2.96%     -    0s
     0     0  481.76154    0   42  496.46600  481.76154  2.96%     -    0s
     0     0  481.76154    0   40  496.46600  481.76154  2.96%     -    0s
     0     0  482.82248    0   40  496.46600  482.82248  2.75%     -    0s
     0     0  485.91398    0   42  496.46600  485.91398  2.13%     -    0s
     0     0  496.46600    0   42  496.46600  496.46600  0.00%     -    0s

Cutting planes:
  Learned: 3
  Cover: 10
  Implied bound: 10
  Clique: 3
  MIR: 34
  GUB cover: 1
  Zero half: 1
  RLT: 5
  Relax-and-lift: 19

Explored 1 nodes (1104 simplex iterations) in 0.28 seconds (0.22 work units)
Thread count was 20 (of 20 available processors)

Solution count 10: 496.466 497.497 497.497 ... 515.574

Optimal solution found (tolerance 0.00e+00)
Best objective 4.964660000000e+02, best bound 4.964660000000e+02, gap 0.0000%

Gurobi 11.0.0 (win64) logging started Thu Sep  5 04:37:33 2024

Set parameter LogFile to value "VRPSTW3.log"
Set parameter MIPGap to value 0
Gurobi Optimizer version 11.0.0 build v11.0.0rc2 (win64 - Windows 11+.0 (22631.2))

CPU model: 13th Gen Intel(R) Core(TM) i7-13650HX, instruction set [SSE2|AVX|AVX2]
Thread count: 14 physical cores, 20 logical processors, using up to 20 threads

Optimize a model with 1281 rows, 508 columns and 4920 nonzeros
Model fingerprint: 0x2943c70f
Variable types: 88 continuous, 420 integer (420 binary)
Coefficient statistics:
  Matrix range     [1e+00, 1e+04]
  Objective range  [3e-01, 6e+01]
  Bounds range     [1e+00, 2e+02]
  RHS range        [1e+00, 1e+04]
Found heuristic solution: objective 1042.0740000
Presolve removed 809 rows and 240 columns
Presolve time: 0.01s
Presolved: 472 rows, 268 columns, 2553 nonzeros
Variable types: 93 continuous, 175 integer (173 binary)

Root relaxation: objective 4.022789e+02, 111 iterations, 0.00 seconds (0.00 work units)

    Nodes    |    Current Node    |     Objective Bounds      |     Work
 Expl Unexpl |  Obj  Depth IntInf | Incumbent    BestBd   Gap | It/Node Time

     0     0  402.27885    0   41 1042.07400  402.27885  61.4%     -    0s
H    0     0                     805.0930000  402.27885  50.0%     -    0s
H    0     0                     619.0070000  402.27885  35.0%     -    0s
H    0     0                     605.2890000  402.27885  33.5%     -    0s
H    0     0                     542.0960000  459.31991  15.3%     -    0s
     0     0  459.31991    0   29  542.09600  459.31991  15.3%     -    0s
H    0     0                     518.6840000  463.58007  10.6%     -    0s
     0     0  463.58007    0   41  518.68400  463.58007  10.6%     -    0s
     0     0  463.58007    0   30  518.68400  463.58007  10.6%     -    0s
     0     0  467.83748    0   35  518.68400  467.83748  9.80%     -    0s
H    0     0                     515.5740000  468.97647  9.04%     -    0s
     0     0  468.97647    0   34  515.57400  468.97647  9.04%     -    0s
     0     0  469.49528    0   34  515.57400  469.49528  8.94%     -    0s
     0     0  469.64345    0   37  515.57400  469.64345  8.91%     -    0s
     0     0  469.67159    0   39  515.57400  469.67159  8.90%     -    0s
     0     0  469.69550    0   38  515.57400  469.69550  8.90%     -    0s
H    0     0                     511.9510000  469.69550  8.25%     -    0s
     0     0  469.69550    0   38  511.95100  469.69550  8.25%     -    0s
     0     0  473.00967    0   36  511.95100  473.00967  7.61%     -    0s
H    0     0                     508.2920000  474.01635  6.74%     -    0s
H    0     0                     499.7300000  474.01635  5.15%     -    0s
     0     0  474.01635    0   39  499.73000  474.01635  5.15%     -    0s
     0     0  474.11657    0   36  499.73000  474.11657  5.13%     -    0s
     0     0  474.12065    0   36  499.73000  474.12065  5.12%     -    0s
     0     0  475.57003    0   39  499.73000  475.57003  4.83%     -    0s
     0     0  476.15386    0   40  499.73000  476.15386  4.72%     -    0s
     0     0  476.15386    0   43  499.73000  476.15386  4.72%     -    0s
     0     0  476.15386    0   37  499.73000  476.15386  4.72%     -    0s
     0     0  476.65729    0   44  499.73000  476.65729  4.62%     -    0s
     0     0  476.65729    0   45  499.73000  476.65729  4.62%     -    0s
     0     0  476.65729    0   45  499.73000  476.65729  4.62%     -    0s
H    0     0                     498.3360000  476.65729  4.35%     -    0s
H    0     0                     497.4970000  476.65729  4.19%     -    0s
     0     0  476.65729    0   46  497.49700  476.65729  4.19%     -    0s
     0     0  479.07753    0   46  497.49700  479.07753  3.70%     -    0s
     0     0  479.66639    0   47  497.49700  479.66639  3.58%     -    0s
     0     0  479.90266    0   47  497.49700  479.90266  3.54%     -    0s
     0     0  480.53691    0   45  497.49700  480.53691  3.41%     -    0s
     0     0  480.53691    0   32  497.49700  480.53691  3.41%     -    0s
     0     0  480.53691    0   40  497.49700  480.53691  3.41%     -    0s
     0     0  480.53691    0   30  497.49700  480.53691  3.41%     -    0s
     0     0  480.53691    0   44  497.49700  480.53691  3.41%     -    0s
     0     0  480.53691    0   44  497.49700  480.53691  3.41%     -    0s
     0     0  480.53691    0   45  497.49700  480.53691  3.41%     -    0s
H    0     0                     496.4660000  481.39370  3.04%     -    0s
     0     0  481.39370    0   45  496.46600  481.39370  3.04%     -    0s
     0     0  481.39370    0   45  496.46600  481.39370  3.04%     -    0s
     0     0  481.39370    0   42  496.46600  481.39370  3.04%     -    0s
     0     0  481.76154    0   42  496.46600  481.76154  2.96%     -    0s
     0     0  481.76154    0   42  496.46600  481.76154  2.96%     -    0s
     0     0  481.76154    0   40  496.46600  481.76154  2.96%     -    0s
     0     0  482.82248    0   40  496.46600  482.82248  2.75%     -    0s
     0     0  485.91398    0   42  496.46600  485.91398  2.13%     -    0s
     0     0  496.46600    0   42  496.46600  496.46600  0.00%     -    0s

Cutting planes:
  Learned: 3
  Cover: 10
  Implied bound: 10
  Clique: 3
  MIR: 34
  GUB cover: 1
  Zero half: 1
  RLT: 5
  Relax-and-lift: 19

Explored 1 nodes (1104 simplex iterations) in 0.31 seconds (0.22 work units)
Thread count was 20 (of 20 available processors)

Solution count 10: 496.466 497.497 497.497 ... 515.574

Optimal solution found (tolerance 0.00e+00)
Best objective 4.964660000000e+02, best bound 4.964660000000e+02, gap 0.0000%

Gurobi 11.0.0 (win64) logging started Fri Sep  6 02:26:07 2024

Set parameter LogFile to value "VRPSTW3.log"
Set parameter MIPGap to value 0
Gurobi Optimizer version 11.0.0 build v11.0.0rc2 (win64 - Windows 11+.0 (22631.2))

CPU model: 13th Gen Intel(R) Core(TM) i7-13650HX, instruction set [SSE2|AVX|AVX2]
Thread count: 14 physical cores, 20 logical processors, using up to 20 threads

Optimize a model with 1281 rows, 508 columns and 4920 nonzeros
Model fingerprint: 0x2943c70f
Variable types: 88 continuous, 420 integer (420 binary)
Coefficient statistics:
  Matrix range     [1e+00, 1e+04]
  Objective range  [3e-01, 6e+01]
  Bounds range     [1e+00, 2e+02]
  RHS range        [1e+00, 1e+04]
Found heuristic solution: objective 1042.0740000
Presolve removed 809 rows and 240 columns
Presolve time: 0.01s
Presolved: 472 rows, 268 columns, 2553 nonzeros
Variable types: 93 continuous, 175 integer (173 binary)

Root relaxation: objective 4.022789e+02, 111 iterations, 0.00 seconds (0.00 work units)

    Nodes    |    Current Node    |     Objective Bounds      |     Work
 Expl Unexpl |  Obj  Depth IntInf | Incumbent    BestBd   Gap | It/Node Time

     0     0  402.27885    0   41 1042.07400  402.27885  61.4%     -    0s
H    0     0                     805.0930000  402.27885  50.0%     -    0s
H    0     0                     619.0070000  402.27885  35.0%     -    0s
H    0     0                     605.2890000  402.27885  33.5%     -    0s
H    0     0                     542.0960000  459.31991  15.3%     -    0s
     0     0  459.31991    0   29  542.09600  459.31991  15.3%     -    0s
H    0     0                     518.6840000  463.58007  10.6%     -    0s
     0     0  463.58007    0   41  518.68400  463.58007  10.6%     -    0s
     0     0  463.58007    0   30  518.68400  463.58007  10.6%     -    0s
     0     0  467.83748    0   35  518.68400  467.83748  9.80%     -    0s
H    0     0                     515.5740000  468.97647  9.04%     -    0s
     0     0  468.97647    0   34  515.57400  468.97647  9.04%     -    0s
     0     0  469.49528    0   34  515.57400  469.49528  8.94%     -    0s
     0     0  469.64345    0   37  515.57400  469.64345  8.91%     -    0s
     0     0  469.67159    0   39  515.57400  469.67159  8.90%     -    0s
     0     0  469.69550    0   38  515.57400  469.69550  8.90%     -    0s
H    0     0                     511.9510000  469.69550  8.25%     -    0s
     0     0  469.69550    0   38  511.95100  469.69550  8.25%     -    0s
     0     0  473.00967    0   36  511.95100  473.00967  7.61%     -    0s
H    0     0                     508.2920000  474.01635  6.74%     -    0s
H    0     0                     499.7300000  474.01635  5.15%     -    0s
     0     0  474.01635    0   39  499.73000  474.01635  5.15%     -    0s
     0     0  474.11657    0   36  499.73000  474.11657  5.13%     -    0s
     0     0  474.12065    0   36  499.73000  474.12065  5.12%     -    0s
     0     0  475.57003    0   39  499.73000  475.57003  4.83%     -    0s
     0     0  476.15386    0   40  499.73000  476.15386  4.72%     -    0s
     0     0  476.15386    0   43  499.73000  476.15386  4.72%     -    0s
     0     0  476.15386    0   37  499.73000  476.15386  4.72%     -    0s
     0     0  476.65729    0   44  499.73000  476.65729  4.62%     -    0s
     0     0  476.65729    0   45  499.73000  476.65729  4.62%     -    0s
     0     0  476.65729    0   45  499.73000  476.65729  4.62%     -    0s
H    0     0                     498.3360000  476.65729  4.35%     -    0s
H    0     0                     497.4970000  476.65729  4.19%     -    0s
     0     0  476.65729    0   46  497.49700  476.65729  4.19%     -    0s
     0     0  479.07753    0   46  497.49700  479.07753  3.70%     -    0s
     0     0  479.66639    0   47  497.49700  479.66639  3.58%     -    0s
     0     0  479.90266    0   47  497.49700  479.90266  3.54%     -    0s
     0     0  480.53691    0   45  497.49700  480.53691  3.41%     -    0s
     0     0  480.53691    0   32  497.49700  480.53691  3.41%     -    0s
     0     0  480.53691    0   40  497.49700  480.53691  3.41%     -    0s
     0     0  480.53691    0   30  497.49700  480.53691  3.41%     -    0s
     0     0  480.53691    0   44  497.49700  480.53691  3.41%     -    0s
     0     0  480.53691    0   44  497.49700  480.53691  3.41%     -    0s
     0     0  480.53691    0   45  497.49700  480.53691  3.41%     -    0s
H    0     0                     496.4660000  481.39370  3.04%     -    0s
     0     0  481.39370    0   45  496.46600  481.39370  3.04%     -    0s
     0     0  481.39370    0   45  496.46600  481.39370  3.04%     -    0s
     0     0  481.39370    0   42  496.46600  481.39370  3.04%     -    0s
     0     0  481.76154    0   42  496.46600  481.76154  2.96%     -    0s
     0     0  481.76154    0   42  496.46600  481.76154  2.96%     -    0s
     0     0  481.76154    0   40  496.46600  481.76154  2.96%     -    0s
     0     0  482.82248    0   40  496.46600  482.82248  2.75%     -    0s
     0     0  485.91398    0   42  496.46600  485.91398  2.13%     -    0s
     0     0  496.46600    0   42  496.46600  496.46600  0.00%     -    0s

Cutting planes:
  Learned: 3
  Cover: 10
  Implied bound: 10
  Clique: 3
  MIR: 34
  GUB cover: 1
  Zero half: 1
  RLT: 5
  Relax-and-lift: 19

Explored 1 nodes (1104 simplex iterations) in 0.28 seconds (0.22 work units)
Thread count was 20 (of 20 available processors)

Solution count 10: 496.466 497.497 497.497 ... 515.574

Optimal solution found (tolerance 0.00e+00)
Best objective 4.964660000000e+02, best bound 4.964660000000e+02, gap 0.0000%

Gurobi 11.0.0 (win64) logging started Fri Sep  6 02:26:55 2024

Set parameter LogFile to value "VRPSTW3.log"
Set parameter MIPGap to value 0
Gurobi Optimizer version 11.0.0 build v11.0.0rc2 (win64 - Windows 11+.0 (22631.2))

CPU model: 13th Gen Intel(R) Core(TM) i7-13650HX, instruction set [SSE2|AVX|AVX2]
Thread count: 14 physical cores, 20 logical processors, using up to 20 threads

Optimize a model with 1281 rows, 508 columns and 4920 nonzeros
Model fingerprint: 0x2943c70f
Variable types: 88 continuous, 420 integer (420 binary)
Coefficient statistics:
  Matrix range     [1e+00, 1e+04]
  Objective range  [3e-01, 6e+01]
  Bounds range     [1e+00, 2e+02]
  RHS range        [1e+00, 1e+04]
Found heuristic solution: objective 1042.0740000
Presolve removed 809 rows and 240 columns
Presolve time: 0.01s
Presolved: 472 rows, 268 columns, 2553 nonzeros
Variable types: 93 continuous, 175 integer (173 binary)

Root relaxation: objective 4.022789e+02, 111 iterations, 0.00 seconds (0.00 work units)

    Nodes    |    Current Node    |     Objective Bounds      |     Work
 Expl Unexpl |  Obj  Depth IntInf | Incumbent    BestBd   Gap | It/Node Time

     0     0  402.27885    0   41 1042.07400  402.27885  61.4%     -    0s
H    0     0                     805.0930000  402.27885  50.0%     -    0s
H    0     0                     619.0070000  402.27885  35.0%     -    0s
H    0     0                     605.2890000  402.27885  33.5%     -    0s
H    0     0                     542.0960000  459.31991  15.3%     -    0s
     0     0  459.31991    0   29  542.09600  459.31991  15.3%     -    0s
H    0     0                     518.6840000  463.58007  10.6%     -    0s
     0     0  463.58007    0   41  518.68400  463.58007  10.6%     -    0s
     0     0  463.58007    0   30  518.68400  463.58007  10.6%     -    0s
     0     0  467.83748    0   35  518.68400  467.83748  9.80%     -    0s
H    0     0                     515.5740000  468.97647  9.04%     -    0s
     0     0  468.97647    0   34  515.57400  468.97647  9.04%     -    0s
     0     0  469.49528    0   34  515.57400  469.49528  8.94%     -    0s
     0     0  469.64345    0   37  515.57400  469.64345  8.91%     -    0s
     0     0  469.67159    0   39  515.57400  469.67159  8.90%     -    0s
     0     0  469.69550    0   38  515.57400  469.69550  8.90%     -    0s
H    0     0                     511.9510000  469.69550  8.25%     -    0s
     0     0  469.69550    0   38  511.95100  469.69550  8.25%     -    0s
     0     0  473.00967    0   36  511.95100  473.00967  7.61%     -    0s
H    0     0                     508.2920000  474.01635  6.74%     -    0s
H    0     0                     499.7300000  474.01635  5.15%     -    0s
     0     0  474.01635    0   39  499.73000  474.01635  5.15%     -    0s
     0     0  474.11657    0   36  499.73000  474.11657  5.13%     -    0s
     0     0  474.12065    0   36  499.73000  474.12065  5.12%     -    0s
     0     0  475.57003    0   39  499.73000  475.57003  4.83%     -    0s
     0     0  476.15386    0   40  499.73000  476.15386  4.72%     -    0s
     0     0  476.15386    0   43  499.73000  476.15386  4.72%     -    0s
     0     0  476.15386    0   37  499.73000  476.15386  4.72%     -    0s
     0     0  476.65729    0   44  499.73000  476.65729  4.62%     -    0s
     0     0  476.65729    0   45  499.73000  476.65729  4.62%     -    0s
     0     0  476.65729    0   45  499.73000  476.65729  4.62%     -    0s
H    0     0                     498.3360000  476.65729  4.35%     -    0s
H    0     0                     497.4970000  476.65729  4.19%     -    0s
     0     0  476.65729    0   46  497.49700  476.65729  4.19%     -    0s
     0     0  479.07753    0   46  497.49700  479.07753  3.70%     -    0s
     0     0  479.66639    0   47  497.49700  479.66639  3.58%     -    0s
     0     0  479.90266    0   47  497.49700  479.90266  3.54%     -    0s
     0     0  480.53691    0   45  497.49700  480.53691  3.41%     -    0s
     0     0  480.53691    0   32  497.49700  480.53691  3.41%     -    0s
     0     0  480.53691    0   40  497.49700  480.53691  3.41%     -    0s
     0     0  480.53691    0   30  497.49700  480.53691  3.41%     -    0s
     0     0  480.53691    0   44  497.49700  480.53691  3.41%     -    0s
     0     0  480.53691    0   44  497.49700  480.53691  3.41%     -    0s
     0     0  480.53691    0   45  497.49700  480.53691  3.41%     -    0s
H    0     0                     496.4660000  481.39370  3.04%     -    0s
     0     0  481.39370    0   45  496.46600  481.39370  3.04%     -    0s
     0     0  481.39370    0   45  496.46600  481.39370  3.04%     -    0s
     0     0  481.39370    0   42  496.46600  481.39370  3.04%     -    0s
     0     0  481.76154    0   42  496.46600  481.76154  2.96%     -    0s
     0     0  481.76154    0   42  496.46600  481.76154  2.96%     -    0s
     0     0  481.76154    0   40  496.46600  481.76154  2.96%     -    0s
     0     0  482.82248    0   40  496.46600  482.82248  2.75%     -    0s
     0     0  485.91398    0   42  496.46600  485.91398  2.13%     -    0s
     0     0  496.46600    0   42  496.46600  496.46600  0.00%     -    0s

Cutting planes:
  Learned: 3
  Cover: 10
  Implied bound: 10
  Clique: 3
  MIR: 34
  GUB cover: 1
  Zero half: 1
  RLT: 5
  Relax-and-lift: 19

Explored 1 nodes (1104 simplex iterations) in 0.31 seconds (0.22 work units)
Thread count was 20 (of 20 available processors)

Solution count 10: 496.466 497.497 497.497 ... 515.574

Optimal solution found (tolerance 0.00e+00)
Best objective 4.964660000000e+02, best bound 4.964660000000e+02, gap 0.0000%
